NAME: cities_5_11
TYPE: TSP
COMMENT: Generated from CSV
DIMENSION: 5
EDGE_WEIGHT_TYPE: EUC_2D
NODE_COORD_SECTION
1 51.02383762528735 93.24280555642132
2 64.60036592752505 23.86411302017919
3 35.01050074168048 77.87950839688394
4 96.14939963275935 56.91495674634233
5 35.831310833242014 17.561294553998476
EOF
